
Gurobi 8.1.1 (win64) logging started 11/28/19 07:00:47

Changed value of parameter LogFile to logs/drand/rlt/drand-05-110-1.log
   Prev: gurobi.log  Default: 
Changed value of parameter LogToConsole to 0
   Prev: 1  Min: 0  Max: 1  Default: 1
Changed value of parameter TimeLimit to 3600.0
   Prev: 1e+100  Min: 0.0  Max: 1e+100  Default: 1e+100
Optimize a model with 88214 rows, 29646 columns and 206794 nonzeros
Variable types: 0 continuous, 29646 integer (243 binary)
Coefficient statistics:
  Matrix range     [1e+00, 1e+00]
  Objective range  [1e+00, 1e+00]
  Bounds range     [1e+00, 1e+00]
  RHS range        [1e+00, 1e+00]
Presolve time: 0.81s
Presolved: 88214 rows, 29646 columns, 206794 nonzeros
Variable types: 0 continuous, 29646 integer (29646 binary)
Found heuristic solution: objective 6.0000000

Root relaxation: objective 1.697917e+00, 1952 iterations, 2.37 seconds

    Nodes    |    Current Node    |     Objective Bounds      |     Work
 Expl Unexpl |  Obj  Depth IntInf | Incumbent    BestBd   Gap | It/Node Time

     0     0    1.69792    0  415    6.00000    1.69792  71.7%     -    4s
H    0     0                       5.0000000    1.69792  66.0%     -    7s
     0     0    1.76665    0  573    5.00000    1.76665  64.7%     -   14s
     0     0    1.79932    0  457    5.00000    1.79932  64.0%     -   25s
     0     0    1.81378    0  864    5.00000    1.81378  63.7%     -   27s
     0     0    1.81531    0  795    5.00000    1.81531  63.7%     -   28s
     0     0    1.82777    0 1062    5.00000    1.82777  63.4%     -   30s
     0     0    1.82784    0 1066    5.00000    1.82784  63.4%     -   37s
     0     0    1.84198    0  969    5.00000    1.84198  63.2%     -   39s
     0     0    1.84367    0  942    5.00000    1.84367  63.1%     -   48s
     0     0    1.86597    0  877    5.00000    1.86597  62.7%     -   50s
     0     0    1.86693    0  882    5.00000    1.86693  62.7%     -   55s
     0     0    1.88723    0  912    5.00000    1.88723  62.3%     -   56s
     0     0    1.88832    0  907    5.00000    1.88832  62.2%     -   57s
     0     0    1.91963    0  840    5.00000    1.91963  61.6%     -   60s
     0     0    1.92152    0  842    5.00000    1.92152  61.6%     -   63s
     0     0    1.94465    0  856    5.00000    1.94465  61.1%     -   66s
     0     0    1.94598    0  860    5.00000    1.94598  61.1%     -   70s
     0     0    1.97167    0  847    5.00000    1.97167  60.6%     -   74s
     0     0    1.97430    0  864    5.00000    1.97430  60.5%     -   78s
     0     0    1.99755    0  887    5.00000    1.99755  60.0%     -   82s
     0     0    1.99800    0  880    5.00000    1.99800  60.0%     -   86s
     0     0    2.01562    0  816    5.00000    2.01562  59.7%     -   90s
     0     0    2.01639    0  834    5.00000    2.01639  59.7%     -   94s
     0     0    2.03633    0  854    5.00000    2.03633  59.3%     -   98s
     0     0    2.03686    0  852    5.00000    2.03686  59.3%     -  106s
     0     0    2.05289    0  825    5.00000    2.05289  58.9%     -  110s
     0     0    2.05299    0  851    5.00000    2.05299  58.9%     -  121s
     0     0    2.06382    0  823    5.00000    2.06382  58.7%     -  125s
     0     0    2.06437    0  847    5.00000    2.06437  58.7%     -  131s
     0     0    2.07275    0  843    5.00000    2.07275  58.5%     -  135s
     0     0    2.07287    0  867    5.00000    2.07287  58.5%     -  142s
     0     0    2.07918    0  872    5.00000    2.07918  58.4%     -  147s
     0     0    2.07939    0  871    5.00000    2.07939  58.4%     -  154s
     0     0    2.08554    0  893    5.00000    2.08554  58.3%     -  159s
     0     0    2.08566    0  896    5.00000    2.08566  58.3%     -  161s
     0     0    2.08896    0  901    5.00000    2.08896  58.2%     -  164s
     0     0    2.08912    0  887    5.00000    2.08912  58.2%     -  173s
     0     0    2.09241    0  896    5.00000    2.09241  58.2%     -  177s
     0     0    2.09286    0  889    5.00000    2.09286  58.1%     -  180s
     0     0    2.09492    0  895    5.00000    2.09492  58.1%     -  185s
     0     0    2.09528    0  899    5.00000    2.09528  58.1%     -  195s
     0     0    2.09749    0  892    5.00000    2.09749  58.1%     -  200s
     0     0    2.09758    0  907    5.00000    2.09758  58.0%     -  205s
     0     0    2.10027    0  892    5.00000    2.10027  58.0%     -  209s
     0     0    2.10261    0  923    5.00000    2.10261  57.9%     -  223s
     0     0    2.10282    0  917    5.00000    2.10282  57.9%     -  239s
     0     0    2.10588    0  916    5.00000    2.10588  57.9%     -  244s
     0     0    2.10596    0  911    5.00000    2.10596  57.9%     -  255s
     0     0    2.10783    0  910    5.00000    2.10783  57.8%     -  260s
     0     0    2.10798    0  908    5.00000    2.10798  57.8%     -  263s
     0     0    2.11165    0  891    5.00000    2.11165  57.8%     -  267s
     0     0    2.11177    0  894    5.00000    2.11177  57.8%     -  278s
     0     0    2.11183    0  896    5.00000    2.11183  57.8%     -  279s
     0     0    2.11527    0  909    5.00000    2.11527  57.7%     -  284s
     0     0    2.11546    0  912    5.00000    2.11546  57.7%     -  288s
     0     0    2.11552    0  932    5.00000    2.11552  57.7%     -  288s
     0     0    2.11730    0  922    5.00000    2.11730  57.7%     -  295s
     0     0    2.11745    0  922    5.00000    2.11745  57.7%     -  337s
     0     0    2.11749    0  926    5.00000    2.11749  57.7%     -  338s
     0     0    2.11818    0  922    5.00000    2.11818  57.6%     -  342s
     0     0    2.11820    0  918    5.00000    2.11820  57.6%     -  347s
     0     0    2.11820    0  918    5.00000    2.11820  57.6%     -  348s
     0     2    2.11820    0  918    5.00000    2.11820  57.6%     -  918s
     1     4    2.11935    1  849    5.00000    2.11824  57.6%  1386  928s
     3     6    2.12105    2  803    5.00000    2.11941  57.6%  3075  932s
     5     8    2.12258    3  804    5.00000    2.11941  57.6%  2298  936s
     7     8    2.12714    4  783    5.00000    2.11941  57.6%  2263  941s
    11    12    2.13655    6  811    5.00000    2.11941  57.6%  1827  947s
    13    14    2.14529    7  755    5.00000    2.11941  57.6%  1719  950s
    17    18    2.15881    9  747    5.00000    2.11941  57.6%  1521  955s
    22    23    2.17429   11  428    5.00000    2.11941  57.6%  1308  960s
    28    29    2.20041   13  644    5.00000    2.11941  57.6%  1155 1104s
    30    31    2.21483   14  328    5.00000    2.11941  57.6%  1137 1106s
    33    34    2.22312   15  570    5.00000    2.11941  57.6%  1081 1110s
    41    42    2.29662   19  500    5.00000    2.11941  57.6%  1008 1116s
    51    52    2.33741   23  474    5.00000    2.11941  57.6%   905 1121s
    63    64    2.37666   28  428    5.00000    2.11941  57.6%   803 1126s
    77    78    2.54287   33  396    5.00000    2.11941  57.6%   733 1132s
    89    90    3.00000   41  106    5.00000    2.11941  57.6%   669 1135s
   102   100    3.80952   50  369    5.00000    2.12107  57.6%   628 1148s
   119   116    2.87899    3  598    5.00000    2.12107  57.6%   616 1151s
   129   126    2.91589    4 1016    5.00000    2.12107  57.6%   597 1156s
   143   136    2.92438    5 1036    5.00000    2.12107  57.6%   552 1167s
   153   145    2.93553    7 1032    5.00000    2.12107  57.6%   566 1174s
   158   149    2.95340   10 1020    5.00000    2.12107  57.6%   577 1178s
   163   153    2.96384   12 1021    5.00000    2.12107  57.6%   574 1182s
   170   160    2.97493   15 1000    5.00000    2.12107  57.6%   567 1291s
   178   168    2.99086   19  940    5.00000    2.12107  57.6%   561 1295s
   195   185    3.03399   26  827    5.00000    2.12107  57.6%   548 1303s
   207   197    3.06721   31  821    5.00000    2.12107  57.6%   539 1309s
   219   209    3.11806   36  718    5.00000    2.12107  57.6%   530 1314s
   234   224    3.18581   43  653    5.00000    2.12107  57.6%   519 1319s
   254   238    3.32601   53  425    5.00000    2.12721  57.5%   502 1334s
   303   282    2.96698    4  556    5.00000    2.12721  57.5%   471 1346s
   319   290    2.98980    6  486    5.00000    2.12721  57.5%   475 1353s
   326   295    3.02178   11  942    5.00000    2.12721  57.5%   481 1358s
   337   305    3.04973   17  821    5.00000    2.12721  57.5%   482 1364s
   355   323    3.08565   27  749    5.00000    2.12721  57.5%   474 1370s
   379   347    3.14337   41  690    5.00000    2.12721  57.5%   465 1376s
   407   372    3.22735   55  575    5.00000    2.12721  57.5%   451 1391s
   475   427    3.90769   91  247    5.00000    2.14581  57.1%   421 1403s
   485   436    2.90628    6 1055    5.00000    2.14581  57.1%   434 1411s
   495   444    2.99471    8  991    5.00000    2.14581  57.1%   439 1419s
   513   456    3.02328   13  934    5.00000    2.14581  57.1%   439 1427s
   542   474    3.05928   23  673    5.00000    2.14581  57.1%   434 1435s
   570   486    3.93987   31  795    5.00000    2.14769  57.0%   430 1449s
   613   516    3.05259    9  902    5.00000    2.15921  56.8%   427 1463s
   625   519    3.07978   13  455    5.00000    2.15921  56.8%   438 1473s
   665   529    3.19285   24  370    5.00000    2.15921  56.8%   434 1486s
   731   552    3.35263   60  918    5.00000    2.15921  56.8%   415 1516s
   733   553    3.12299   37  415    5.00000    2.15921  56.8%   414 1528s
   734   554    2.97388   10  918    5.00000    2.15921  56.8%   414 2104s
   735   555    2.99482    9  877    5.00000    2.15921  56.8%   413 2108s
   736   555    2.96830    9  871    5.00000    2.15921  56.8%   413 2113s
   737   556    3.08209   34  891    5.00000    2.15921  56.8%   412 2116s
   739   557    3.03964   18  897    5.00000    2.15921  56.8%   411 2123s
   740   558    3.72358   87  912    5.00000    2.15921  56.8%   410 2138s
   741   559    2.90525    9  906    5.00000    2.15921  56.8%   410 2141s
   742   559    3.33423   65  904    5.00000    2.15921  56.8%   409 2158s
   744   561    2.97830   11  891    5.00000    2.15921  56.8%   408 2162s
   745   561    3.05416   21  913    5.00000    2.15921  56.8%   408 2180s
   747   563    3.12212   37  915    5.00000    2.15921  56.8%   406 2185s
   748   563    3.11070   36  927    5.00000    2.15921  56.8%   406 2204s
   749   564    2.98350   16  914    5.00000    2.15921  56.8%   405 2206s
   750   565    3.66667   85  924    5.00000    2.15921  56.8%   405 2210s
   751   565    3.30000   49  819    5.00000    2.15921  56.8%   404 2228s
   752   566    3.38403   69  858    5.00000    2.15921  56.8%   404 2230s
   754   567    3.38318   62  785    5.00000    2.15921  56.8%   403 2249s
   755   568    2.96289   12  865    5.00000    2.15921  56.8%   402 2251s
   757   569    3.21793   52  914    5.00000    2.15921  56.8%   401 2288s
   758   570    3.22501   49  904    5.00000    2.15921  56.8%   401 2291s
   759   571    3.11705   18  904    5.00000    2.15921  56.8%   400 2316s
   761   572    3.07632   13  894    5.00000    2.15921  56.8%   399 2322s
   762   573    2.73453   38  920    5.00000    2.15921  56.8%   398 2373s
   764   574    2.95386   40  913    5.00000    2.15921  56.8%   397 2377s
   765   575    4.00000   88  932    5.00000    2.15921  56.8%   397 2397s
   766   575    2.93570    8  917    5.00000    2.15921  56.8%   396 2401s
   767   576    3.01856   11  856    5.00000    2.15921  56.8%   396 2419s
   768   577    3.08122   29  900    5.00000    2.15921  56.8%   395 2421s
   770   578    3.11070   36  905    5.00000    2.15921  56.8%   394 2444s
   771   579    3.01104   23  947    5.00000    2.15926  56.8%   394 2447s
   772   579    3.23513   49  926    5.00000    2.15930  56.8%   393 2450s
   773   580    2.88369    5  924    5.00000    2.16041  56.8%   393 2526s
   775   581    2.89758    8  924    5.00000    2.16041  56.8%   392 2578s
   776   585    2.16062   14  922    5.00000    2.16062  56.8%   463 2782s
   778   586    2.16123   15  897    5.00000    2.16101  56.8%   474 2897s
   780   588    2.88032   15 1217    5.00000    2.16123  56.8%   483 2963s
   782   589    2.16168   16  869    5.00000    2.16168  56.8%   488 2967s
   784   590    2.87675   16 1236    5.00000    2.16168  56.8%   498 3030s
   786   593    2.16176   17  874    5.00000    2.16176  56.8%   502 3070s
   789   593    2.16234   18  811    5.00000    2.16234  56.8%   516 3108s
   792   594    2.16249   19  809    5.00000    2.16249  56.8%   528 3149s
   796   596    2.16260   20  798    5.00000    2.16260  56.7%   540 3188s
   800   599    2.16301   21  792    5.00000    2.16301  56.7%   555 3231s
   804   602    2.16302   22  777    5.00000    2.16302  56.7%   568 3331s
   808   604    2.16326   23  780    5.00000    2.16326  56.7%   581 3366s
   812   607    2.16487   24  762    5.00000    2.16487  56.7%   596 3398s
   816   610    2.16582   25  741    5.00000    2.16582  56.7%   607 3435s
   820   612    2.16775   26  751    5.00000    2.16775  56.6%   619 3493s
   826   616    2.17065   27  690    5.00000    2.17065  56.6%   634 3528s
   830   619    2.17285   28  691    5.00000    2.17285  56.5%   645 3561s

Cutting planes:
  Gomory: 2
  MIR: 2
  Flow cover: 12
  Zero half: 68
  Mod-K: 123

Explored 834 nodes (607439 simplex iterations) in 3600.05 seconds
Thread count was 4 (of 4 available processors)

Solution count 2: 5 6 

Time limit reached
Best objective 5.000000000000e+00, best bound 3.000000000000e+00, gap 40.0000%
